param MAXWORK := 32;

param:
TNAME: TWORK :=
'echo.pm' 80
'echo.pf' 20
'foxtrot.pm' 80
'foxtrot.pf' 20
'golf.pm' 160
'golf.pf' 40
'hotel.pm' 320
'hotel.pf' 40
'kilo.pe' 100
'kilo.pm' 60
'kilo.pf' 80
'lima.pe' 100
'lima.pm' 400
'lima.pf' 80
'zulu2.pe' 200
'zulu2.pm' 360
'zulu2.pf' 80
;

set TSCOPE['echo.pm'] :=
3 4 7 8 9 10 11 14 15 16 17 18 21 22 23 24 25 28 29 30 31 32 35 36 37 38 39 42 43 44 45 46 49 50 51 52 53 56 57 58 59 60 63 64 65 66 67 70 71 72
73 74
;

set TSCOPE['echo.pf'] :=
93 94 95 98 99 100 101 102 105 106 107 108 109 112 113 114 115 116 119 120 121 123 126 127 128 129 130 133 134 135 136 137
;

set TSCOPE['foxtrot.pm'] :=
3 4 7 8 9 10 11 14 15 16 17 18 21 22 23 24 25 28 29 30 31 32 35 36 37 38 39 42 43 44 45 46 49 50 51 52 53 56 57 58 59 60 63 64 65 66 67 70 71 72
73 74 77 78 79 80 81 84 85 86 87 88 91 92
;

set TSCOPE['foxtrot.pf'] :=
93 94 95 98 99 100 101 102 105 106 107 108 109 112 113 114 115 116 119 120 121 123
;

set TSCOPE['golf.pm'] :=
3 4 7 8 9 10 11 14 15 16 17 18 21 22 23 24 25 28 29 30 31 32 35 36 37 38 39 42 43 44 45 46 49 50 51 52 53 56 57 58 59 60 63 64 65 66 67 70 71 72
73 74 77 78 79 80 81 84 85 86 87 88 91 92 93 94 95 98 99 100 101 102 105 106 107 108 109 112 113 114 115 116 119 120 121 123 126 127 128 129 130 133
;

set TSCOPE['golf.pf'] :=
134 135 136 137 140 141 142 143 144 147 148 149 150 151 154 155 156 157 158 161 162 163 164 165 168 169 170 171 172 175 176 177 178 179
;

set TSCOPE['hotel.pm'] :=
3 4 7 8 9 10 11 14 15 16 17 18 21 22 23 24 25 28 29 30 31 32 35 36 37 38 39 42 43 44 45 46 49 50 51 52 53 56 57 58 59 60 63 64 65 66 67 70 71 72
73 74 77 78 79 80 81 84 85 86 87 88 91 92 93 94 95 98 99 100 101 102 105 106 107 108 109 112 113 114 115 116 119 120 121 123 126 127 128 129 130 133 134 135 136 137 140 141 142 143
144 147 148 149 150 151 154 155 156 157 158 161 162 163 164 165 168 169 170 171 172 175 176 177 178 179 182 183 184 185 186 189 190 191 192 193 196 197 198 199 200 203 204 205 206 207 210 211 212 213
214 217 218 219 220 221 224 225 226 227 228 231 232 233 234 235 238 239 240 241 242 245
;

set TSCOPE['hotel.pf'] :=
246 247 248 249 252 253 254 255 256 259 260 261 262 263 266 267 268 269 270 273 274 275 276 277 280 281 282 283 284 287 288 289 290 291
;

set TSCOPE['kilo.pe'] :=
63 64 65 66 67 70 71 72 73 74 77 78 79 80 81 84
;

set TSCOPE['kilo.pm'] :=
85 86 87 88 91 92 93 94 95 98 99 100 101 102 105 106 107 108 109 112 113 114 115 116 119 120 121 123 126 127 128 129 130 133 134 135 136 137 140 141 142 143 144 147 148 149 150 151 154 155
156 157 158 161 162 163 164 165 168 169 170 171 172 175 176 177 178 179 182 183 184 185 186 189 190 191 192 193 196 197 198 199 200 203 204 205 206 207 210 211 212 213 214
;

set TSCOPE['kilo.pf'] :=
217 218 219 220 221 224 225 226 227 228 231 232 233 234 235 238 239 240 241 242 245 246 247 248 249 252 253 254 255 256 259 260
;

set TSCOPE['lima.pe'] :=
81 84 85 86 87 88 91 92 93 94 95 98 99 100 101 102 105 106 107 108 109
;

set TSCOPE['lima.pm'] :=
112 113 114 115 116 119 120 121 123 126 127 128 129 130 133 134 135 136 137 140 141 142 143 144 147 148 149 150 151 154 155 156 157 158 161 162 163 164 165 168 169 170 171 172 175 176 177 178 179 182
183 184 185 186 189 190 191 192 193 196 197 198 199 200 203 204 205 206 207 210 211 212 213 214 217 218 219 220 221 224 225 226 227 228 231 232 233 234 235 238 239 240 241 242 245 246 247 248 249 252
253 254 255 256 259 260 261 262 263 266 267 268 269 270 273 274 275 276 277 280 281 282 283 284 287 288 289 290 291 294 295 296 297 298 301 302 303 304 305
;

set TSCOPE['lima.pf'] :=
308 309 310 311 312 315 316 317 318 319 322 323 324 325 326 329 330 331 332 333
;

set TSCOPE['zulu2.pe'] :=
168 169 170 171 172 175 176 177 178 179 182 183 184 185 186 189 190 191 192 193 196 197
;

set TSCOPE['zulu2.pm'] :=
198 199 200 203 204 205 206 207 210 211 212 213 214 217 218 219 220 221 224 225 226 227 228 231 232 233 234 235 238 239 240 241 242 245 246 247 248 249 252 253 254 255 256 259 260 261 262 263 266 267
268 269 270 273 274 275 276 277 280 281 282 283 284 287 288 289 290 291 294 295 296 297 298 301 302 303 304 305 308 309 310 311 312 315 316 317 318 319 322 323 324 325 326
;

set TSCOPE['zulu2.pf'] :=
329 330 331 332 333 336
;

set ENAME :=
'PM.Lisa'
;

set ASSIGN :=
'PM.Lisa' 'echo.pf'
'PM.Lisa' 'echo.pm'
'PM.Lisa' 'foxtrot.pf'
'PM.Lisa' 'foxtrot.pm'
'PM.Lisa' 'golf.pf'
'PM.Lisa' 'golf.pm'
'PM.Lisa' 'hotel.pf'
'PM.Lisa' 'hotel.pm'
'PM.Lisa' 'kilo.pe'
'PM.Lisa' 'kilo.pf'
'PM.Lisa' 'kilo.pm'
'PM.Lisa' 'lima.pe'
'PM.Lisa' 'lima.pf'
'PM.Lisa' 'lima.pm'
'PM.Lisa' 'zulu2.pe'
'PM.Lisa' 'zulu2.pf'
'PM.Lisa' 'zulu2.pm'
;

param:
XBID: XBL XBU :=
'PM.Lisa' 'echo.pm' 3 1.0 2.0
'PM.Lisa' 'echo.pm' 4 1.0 2.0
'PM.Lisa' 'echo.pm' 7 1.0 2.0
'PM.Lisa' 'echo.pm' 8 1.0 2.0
'PM.Lisa' 'echo.pm' 9 1.0 2.0
'PM.Lisa' 'echo.pm' 10 1.0 2.0
'PM.Lisa' 'echo.pm' 11 1.0 2.0
'PM.Lisa' 'echo.pm' 14 1.0 2.0
'PM.Lisa' 'echo.pm' 15 1.0 2.0
'PM.Lisa' 'echo.pm' 16 1.0 2.0
'PM.Lisa' 'echo.pm' 17 1.0 2.0
'PM.Lisa' 'echo.pm' 18 1.0 2.0
'PM.Lisa' 'echo.pm' 21 1.0 2.0
'PM.Lisa' 'echo.pm' 22 1.0 2.0
'PM.Lisa' 'echo.pm' 23 1.0 2.0
'PM.Lisa' 'echo.pm' 24 1.0 2.0
'PM.Lisa' 'echo.pm' 25 1.0 2.0
'PM.Lisa' 'echo.pm' 28 1.0 2.0
'PM.Lisa' 'echo.pm' 29 1.0 2.0
'PM.Lisa' 'echo.pm' 30 1.0 2.0
'PM.Lisa' 'echo.pm' 31 1.0 2.0
'PM.Lisa' 'echo.pm' 32 1.0 2.0
'PM.Lisa' 'echo.pm' 35 1.0 2.0
'PM.Lisa' 'echo.pm' 36 1.0 2.0
'PM.Lisa' 'echo.pm' 37 1.0 2.0
'PM.Lisa' 'echo.pm' 38 1.0 2.0
'PM.Lisa' 'echo.pm' 39 1.0 2.0
'PM.Lisa' 'echo.pm' 42 1.0 2.0
'PM.Lisa' 'echo.pm' 43 1.0 2.0
'PM.Lisa' 'echo.pm' 44 1.0 2.0
'PM.Lisa' 'echo.pm' 45 1.0 2.0
'PM.Lisa' 'echo.pm' 46 1.0 2.0
'PM.Lisa' 'echo.pm' 49 1.0 2.0
'PM.Lisa' 'echo.pm' 50 1.0 2.0
'PM.Lisa' 'echo.pm' 51 1.0 2.0
'PM.Lisa' 'echo.pm' 52 1.0 2.0
'PM.Lisa' 'echo.pm' 53 1.0 2.0
'PM.Lisa' 'echo.pm' 56 1.0 2.0
'PM.Lisa' 'echo.pm' 57 1.0 2.0
'PM.Lisa' 'echo.pm' 58 1.0 2.0
'PM.Lisa' 'echo.pm' 59 1.0 2.0
'PM.Lisa' 'echo.pm' 60 1.0 2.0
'PM.Lisa' 'echo.pm' 63 1.0 2.0
'PM.Lisa' 'echo.pm' 64 1.0 2.0
'PM.Lisa' 'echo.pm' 65 1.0 2.0
'PM.Lisa' 'echo.pm' 66 1.0 2.0
'PM.Lisa' 'echo.pm' 67 1.0 2.0
'PM.Lisa' 'echo.pm' 70 1.0 2.0
'PM.Lisa' 'echo.pm' 71 1.0 2.0
'PM.Lisa' 'echo.pm' 72 1.0 2.0
'PM.Lisa' 'echo.pm' 73 1.0 2.0
'PM.Lisa' 'echo.pm' 74 1.0 2.0
'PM.Lisa' 'echo.pf' 93 0.0 1.0
'PM.Lisa' 'echo.pf' 94 0.0 1.0
'PM.Lisa' 'echo.pf' 95 0.0 1.0
'PM.Lisa' 'echo.pf' 98 0.0 1.0
'PM.Lisa' 'echo.pf' 99 0.0 1.0
'PM.Lisa' 'echo.pf' 100 0.0 1.0
'PM.Lisa' 'echo.pf' 101 0.0 1.0
'PM.Lisa' 'echo.pf' 102 0.0 1.0
'PM.Lisa' 'echo.pf' 105 0.0 1.0
'PM.Lisa' 'echo.pf' 106 0.0 1.0
'PM.Lisa' 'echo.pf' 107 0.0 1.0
'PM.Lisa' 'echo.pf' 108 0.0 1.0
'PM.Lisa' 'echo.pf' 109 0.0 1.0
'PM.Lisa' 'echo.pf' 112 0.0 1.0
'PM.Lisa' 'echo.pf' 113 0.0 1.0
'PM.Lisa' 'echo.pf' 114 0.0 1.0
'PM.Lisa' 'echo.pf' 115 0.0 1.0
'PM.Lisa' 'echo.pf' 116 0.0 1.0
'PM.Lisa' 'echo.pf' 119 0.0 1.0
'PM.Lisa' 'echo.pf' 120 0.0 1.0
'PM.Lisa' 'echo.pf' 121 0.0 1.0
'PM.Lisa' 'echo.pf' 123 0.0 1.0
'PM.Lisa' 'echo.pf' 126 0.0 1.0
'PM.Lisa' 'echo.pf' 127 0.0 1.0
'PM.Lisa' 'echo.pf' 128 0.0 1.0
'PM.Lisa' 'echo.pf' 129 0.0 1.0
'PM.Lisa' 'echo.pf' 130 0.0 1.0
'PM.Lisa' 'echo.pf' 133 0.0 1.0
'PM.Lisa' 'echo.pf' 134 0.0 1.0
'PM.Lisa' 'echo.pf' 135 0.0 1.0
'PM.Lisa' 'echo.pf' 136 0.0 1.0
'PM.Lisa' 'echo.pf' 137 0.0 1.0
'PM.Lisa' 'foxtrot.pm' 3 1.0 2.0
'PM.Lisa' 'foxtrot.pm' 4 1.0 2.0
'PM.Lisa' 'foxtrot.pm' 7 1.0 2.0
'PM.Lisa' 'foxtrot.pm' 8 1.0 2.0
'PM.Lisa' 'foxtrot.pm' 9 1.0 2.0
'PM.Lisa' 'foxtrot.pm' 10 1.0 2.0
'PM.Lisa' 'foxtrot.pm' 11 1.0 2.0
'PM.Lisa' 'foxtrot.pm' 14 1.0 2.0
'PM.Lisa' 'foxtrot.pm' 15 1.0 2.0
'PM.Lisa' 'foxtrot.pm' 16 1.0 2.0
'PM.Lisa' 'foxtrot.pm' 17 1.0 2.0
'PM.Lisa' 'foxtrot.pm' 18 1.0 2.0
'PM.Lisa' 'foxtrot.pm' 21 1.0 2.0
'PM.Lisa' 'foxtrot.pm' 22 1.0 2.0
'PM.Lisa' 'foxtrot.pm' 23 1.0 2.0
'PM.Lisa' 'foxtrot.pm' 24 1.0 2.0
'PM.Lisa' 'foxtrot.pm' 25 1.0 2.0
'PM.Lisa' 'foxtrot.pm' 28 1.0 2.0
'PM.Lisa' 'foxtrot.pm' 29 1.0 2.0
'PM.Lisa' 'foxtrot.pm' 30 1.0 2.0
'PM.Lisa' 'foxtrot.pm' 31 1.0 2.0
'PM.Lisa' 'foxtrot.pm' 32 1.0 2.0
'PM.Lisa' 'foxtrot.pm' 35 1.0 2.0
'PM.Lisa' 'foxtrot.pm' 36 1.0 2.0
'PM.Lisa' 'foxtrot.pm' 37 1.0 2.0
'PM.Lisa' 'foxtrot.pm' 38 1.0 2.0
'PM.Lisa' 'foxtrot.pm' 39 1.0 2.0
'PM.Lisa' 'foxtrot.pm' 42 1.0 2.0
'PM.Lisa' 'foxtrot.pm' 43 1.0 2.0
'PM.Lisa' 'foxtrot.pm' 44 1.0 2.0
'PM.Lisa' 'foxtrot.pm' 45 1.0 2.0
'PM.Lisa' 'foxtrot.pm' 46 1.0 2.0
'PM.Lisa' 'foxtrot.pm' 49 1.0 2.0
'PM.Lisa' 'foxtrot.pm' 50 1.0 2.0
'PM.Lisa' 'foxtrot.pm' 51 1.0 2.0
'PM.Lisa' 'foxtrot.pm' 52 1.0 2.0
'PM.Lisa' 'foxtrot.pm' 53 1.0 2.0
'PM.Lisa' 'foxtrot.pm' 56 1.0 2.0
'PM.Lisa' 'foxtrot.pm' 57 1.0 2.0
'PM.Lisa' 'foxtrot.pm' 58 1.0 2.0
'PM.Lisa' 'foxtrot.pm' 59 1.0 2.0
'PM.Lisa' 'foxtrot.pm' 60 1.0 2.0
'PM.Lisa' 'foxtrot.pm' 63 1.0 2.0
'PM.Lisa' 'foxtrot.pm' 64 1.0 2.0
'PM.Lisa' 'foxtrot.pm' 65 1.0 2.0
'PM.Lisa' 'foxtrot.pm' 66 1.0 2.0
'PM.Lisa' 'foxtrot.pm' 67 1.0 2.0
'PM.Lisa' 'foxtrot.pm' 70 1.0 2.0
'PM.Lisa' 'foxtrot.pm' 71 1.0 2.0
'PM.Lisa' 'foxtrot.pm' 72 1.0 2.0
'PM.Lisa' 'foxtrot.pm' 73 1.0 2.0
'PM.Lisa' 'foxtrot.pm' 74 1.0 2.0
'PM.Lisa' 'foxtrot.pm' 77 1.0 2.0
'PM.Lisa' 'foxtrot.pm' 78 1.0 2.0
'PM.Lisa' 'foxtrot.pm' 79 1.0 2.0
'PM.Lisa' 'foxtrot.pm' 80 1.0 2.0
'PM.Lisa' 'foxtrot.pm' 81 1.0 2.0
'PM.Lisa' 'foxtrot.pm' 84 1.0 2.0
'PM.Lisa' 'foxtrot.pm' 85 1.0 2.0
'PM.Lisa' 'foxtrot.pm' 86 1.0 2.0
'PM.Lisa' 'foxtrot.pm' 87 1.0 2.0
'PM.Lisa' 'foxtrot.pm' 88 1.0 2.0
'PM.Lisa' 'foxtrot.pm' 91 1.0 2.0
'PM.Lisa' 'foxtrot.pm' 92 1.0 2.0
'PM.Lisa' 'foxtrot.pf' 93 0.0 1.0
'PM.Lisa' 'foxtrot.pf' 94 0.0 1.0
'PM.Lisa' 'foxtrot.pf' 95 0.0 1.0
'PM.Lisa' 'foxtrot.pf' 98 0.0 1.0
'PM.Lisa' 'foxtrot.pf' 99 0.0 1.0
'PM.Lisa' 'foxtrot.pf' 100 0.0 1.0
'PM.Lisa' 'foxtrot.pf' 101 0.0 1.0
'PM.Lisa' 'foxtrot.pf' 102 0.0 1.0
'PM.Lisa' 'foxtrot.pf' 105 0.0 1.0
'PM.Lisa' 'foxtrot.pf' 106 0.0 1.0
'PM.Lisa' 'foxtrot.pf' 107 0.0 1.0
'PM.Lisa' 'foxtrot.pf' 108 0.0 1.0
'PM.Lisa' 'foxtrot.pf' 109 0.0 1.0
'PM.Lisa' 'foxtrot.pf' 112 0.0 1.0
'PM.Lisa' 'foxtrot.pf' 113 0.0 1.0
'PM.Lisa' 'foxtrot.pf' 114 0.0 1.0
'PM.Lisa' 'foxtrot.pf' 115 0.0 1.0
'PM.Lisa' 'foxtrot.pf' 116 0.0 1.0
'PM.Lisa' 'foxtrot.pf' 119 0.0 1.0
'PM.Lisa' 'foxtrot.pf' 120 0.0 1.0
'PM.Lisa' 'foxtrot.pf' 121 0.0 1.0
'PM.Lisa' 'foxtrot.pf' 123 0.0 1.0
'PM.Lisa' 'golf.pm' 3 1.0 2.0
'PM.Lisa' 'golf.pm' 4 1.0 2.0
'PM.Lisa' 'golf.pm' 7 1.0 2.0
'PM.Lisa' 'golf.pm' 8 1.0 2.0
'PM.Lisa' 'golf.pm' 9 1.0 2.0
'PM.Lisa' 'golf.pm' 10 1.0 2.0
'PM.Lisa' 'golf.pm' 11 1.0 2.0
'PM.Lisa' 'golf.pm' 14 1.0 2.0
'PM.Lisa' 'golf.pm' 15 1.0 2.0
'PM.Lisa' 'golf.pm' 16 1.0 2.0
'PM.Lisa' 'golf.pm' 17 1.0 2.0
'PM.Lisa' 'golf.pm' 18 1.0 2.0
'PM.Lisa' 'golf.pm' 21 1.0 2.0
'PM.Lisa' 'golf.pm' 22 1.0 2.0
'PM.Lisa' 'golf.pm' 23 1.0 2.0
'PM.Lisa' 'golf.pm' 24 1.0 2.0
'PM.Lisa' 'golf.pm' 25 1.0 2.0
'PM.Lisa' 'golf.pm' 28 1.0 2.0
'PM.Lisa' 'golf.pm' 29 1.0 2.0
'PM.Lisa' 'golf.pm' 30 1.0 2.0
'PM.Lisa' 'golf.pm' 31 1.0 2.0
'PM.Lisa' 'golf.pm' 32 1.0 2.0
'PM.Lisa' 'golf.pm' 35 1.0 2.0
'PM.Lisa' 'golf.pm' 36 1.0 2.0
'PM.Lisa' 'golf.pm' 37 1.0 2.0
'PM.Lisa' 'golf.pm' 38 1.0 2.0
'PM.Lisa' 'golf.pm' 39 1.0 2.0
'PM.Lisa' 'golf.pm' 42 1.0 2.0
'PM.Lisa' 'golf.pm' 43 1.0 2.0
'PM.Lisa' 'golf.pm' 44 1.0 2.0
'PM.Lisa' 'golf.pm' 45 1.0 2.0
'PM.Lisa' 'golf.pm' 46 1.0 2.0
'PM.Lisa' 'golf.pm' 49 1.0 2.0
'PM.Lisa' 'golf.pm' 50 1.0 2.0
'PM.Lisa' 'golf.pm' 51 1.0 2.0
'PM.Lisa' 'golf.pm' 52 1.0 2.0
'PM.Lisa' 'golf.pm' 53 1.0 2.0
'PM.Lisa' 'golf.pm' 56 1.0 2.0
'PM.Lisa' 'golf.pm' 57 1.0 2.0
'PM.Lisa' 'golf.pm' 58 1.0 2.0
'PM.Lisa' 'golf.pm' 59 1.0 2.0
'PM.Lisa' 'golf.pm' 60 1.0 2.0
'PM.Lisa' 'golf.pm' 63 1.0 2.0
'PM.Lisa' 'golf.pm' 64 1.0 2.0
'PM.Lisa' 'golf.pm' 65 1.0 2.0
'PM.Lisa' 'golf.pm' 66 1.0 2.0
'PM.Lisa' 'golf.pm' 67 1.0 2.0
'PM.Lisa' 'golf.pm' 70 1.0 2.0
'PM.Lisa' 'golf.pm' 71 1.0 2.0
'PM.Lisa' 'golf.pm' 72 1.0 2.0
'PM.Lisa' 'golf.pm' 73 1.0 2.0
'PM.Lisa' 'golf.pm' 74 1.0 2.0
'PM.Lisa' 'golf.pm' 77 1.0 2.0
'PM.Lisa' 'golf.pm' 78 1.0 2.0
'PM.Lisa' 'golf.pm' 79 1.0 2.0
'PM.Lisa' 'golf.pm' 80 1.0 2.0
'PM.Lisa' 'golf.pm' 81 1.0 2.0
'PM.Lisa' 'golf.pm' 84 1.0 2.0
'PM.Lisa' 'golf.pm' 85 1.0 2.0
'PM.Lisa' 'golf.pm' 86 1.0 2.0
'PM.Lisa' 'golf.pm' 87 1.0 2.0
'PM.Lisa' 'golf.pm' 88 1.0 2.0
'PM.Lisa' 'golf.pm' 91 1.0 2.0
'PM.Lisa' 'golf.pm' 92 1.0 2.0
'PM.Lisa' 'golf.pm' 93 1.0 2.0
'PM.Lisa' 'golf.pm' 94 1.0 2.0
'PM.Lisa' 'golf.pm' 95 1.0 2.0
'PM.Lisa' 'golf.pm' 98 1.0 2.0
'PM.Lisa' 'golf.pm' 99 1.0 2.0
'PM.Lisa' 'golf.pm' 100 1.0 2.0
'PM.Lisa' 'golf.pm' 101 1.0 2.0
'PM.Lisa' 'golf.pm' 102 1.0 2.0
'PM.Lisa' 'golf.pm' 105 1.0 2.0
'PM.Lisa' 'golf.pm' 106 1.0 2.0
'PM.Lisa' 'golf.pm' 107 1.0 2.0
'PM.Lisa' 'golf.pm' 108 1.0 2.0
'PM.Lisa' 'golf.pm' 109 1.0 2.0
'PM.Lisa' 'golf.pm' 112 1.0 2.0
'PM.Lisa' 'golf.pm' 113 1.0 2.0
'PM.Lisa' 'golf.pm' 114 1.0 2.0
'PM.Lisa' 'golf.pm' 115 1.0 2.0
'PM.Lisa' 'golf.pm' 116 1.0 2.0
'PM.Lisa' 'golf.pm' 119 1.0 2.0
'PM.Lisa' 'golf.pm' 120 1.0 2.0
'PM.Lisa' 'golf.pm' 121 1.0 2.0
'PM.Lisa' 'golf.pm' 123 1.0 2.0
'PM.Lisa' 'golf.pm' 126 1.0 2.0
'PM.Lisa' 'golf.pm' 127 1.0 2.0
'PM.Lisa' 'golf.pm' 128 1.0 2.0
'PM.Lisa' 'golf.pm' 129 1.0 2.0
'PM.Lisa' 'golf.pm' 130 1.0 2.0
'PM.Lisa' 'golf.pm' 133 1.0 2.0
'PM.Lisa' 'golf.pf' 134 1.0 2.0
'PM.Lisa' 'golf.pf' 135 1.0 2.0
'PM.Lisa' 'golf.pf' 136 1.0 2.0
'PM.Lisa' 'golf.pf' 137 1.0 2.0
'PM.Lisa' 'golf.pf' 140 1.0 2.0
'PM.Lisa' 'golf.pf' 141 1.0 2.0
'PM.Lisa' 'golf.pf' 142 1.0 2.0
'PM.Lisa' 'golf.pf' 143 1.0 2.0
'PM.Lisa' 'golf.pf' 144 1.0 2.0
'PM.Lisa' 'golf.pf' 147 1.0 2.0
'PM.Lisa' 'golf.pf' 148 1.0 2.0
'PM.Lisa' 'golf.pf' 149 1.0 2.0
'PM.Lisa' 'golf.pf' 150 1.0 2.0
'PM.Lisa' 'golf.pf' 151 1.0 2.0
'PM.Lisa' 'golf.pf' 154 1.0 2.0
'PM.Lisa' 'golf.pf' 155 1.0 2.0
'PM.Lisa' 'golf.pf' 156 1.0 2.0
'PM.Lisa' 'golf.pf' 157 1.0 2.0
'PM.Lisa' 'golf.pf' 158 1.0 2.0
'PM.Lisa' 'golf.pf' 161 1.0 2.0
'PM.Lisa' 'golf.pf' 162 1.0 2.0
'PM.Lisa' 'golf.pf' 163 1.0 2.0
'PM.Lisa' 'golf.pf' 164 1.0 2.0
'PM.Lisa' 'golf.pf' 165 1.0 2.0
'PM.Lisa' 'golf.pf' 168 1.0 2.0
'PM.Lisa' 'golf.pf' 169 1.0 2.0
'PM.Lisa' 'golf.pf' 170 1.0 2.0
'PM.Lisa' 'golf.pf' 171 1.0 2.0
'PM.Lisa' 'golf.pf' 172 1.0 2.0
'PM.Lisa' 'golf.pf' 175 1.0 2.0
'PM.Lisa' 'golf.pf' 176 1.0 2.0
'PM.Lisa' 'golf.pf' 177 1.0 2.0
'PM.Lisa' 'golf.pf' 178 1.0 2.0
'PM.Lisa' 'golf.pf' 179 1.0 2.0
'PM.Lisa' 'hotel.pm' 3 1.0 2.0
'PM.Lisa' 'hotel.pm' 4 1.0 2.0
'PM.Lisa' 'hotel.pm' 7 1.0 2.0
'PM.Lisa' 'hotel.pm' 8 1.0 2.0
'PM.Lisa' 'hotel.pm' 9 1.0 2.0
'PM.Lisa' 'hotel.pm' 10 1.0 2.0
'PM.Lisa' 'hotel.pm' 11 1.0 2.0
'PM.Lisa' 'hotel.pm' 14 1.0 2.0
'PM.Lisa' 'hotel.pm' 15 1.0 2.0
'PM.Lisa' 'hotel.pm' 16 1.0 2.0
'PM.Lisa' 'hotel.pm' 17 1.0 2.0
'PM.Lisa' 'hotel.pm' 18 1.0 2.0
'PM.Lisa' 'hotel.pm' 21 1.0 2.0
'PM.Lisa' 'hotel.pm' 22 1.0 2.0
'PM.Lisa' 'hotel.pm' 23 1.0 2.0
'PM.Lisa' 'hotel.pm' 24 1.0 2.0
'PM.Lisa' 'hotel.pm' 25 1.0 2.0
'PM.Lisa' 'hotel.pm' 28 1.0 2.0
'PM.Lisa' 'hotel.pm' 29 1.0 2.0
'PM.Lisa' 'hotel.pm' 30 1.0 2.0
'PM.Lisa' 'hotel.pm' 31 1.0 2.0
'PM.Lisa' 'hotel.pm' 32 1.0 2.0
'PM.Lisa' 'hotel.pm' 35 1.0 2.0
'PM.Lisa' 'hotel.pm' 36 1.0 2.0
'PM.Lisa' 'hotel.pm' 37 1.0 2.0
'PM.Lisa' 'hotel.pm' 38 1.0 2.0
'PM.Lisa' 'hotel.pm' 39 1.0 2.0
'PM.Lisa' 'hotel.pm' 42 1.0 2.0
'PM.Lisa' 'hotel.pm' 43 1.0 2.0
'PM.Lisa' 'hotel.pm' 44 1.0 2.0
'PM.Lisa' 'hotel.pm' 45 1.0 2.0
'PM.Lisa' 'hotel.pm' 46 1.0 2.0
'PM.Lisa' 'hotel.pm' 49 1.0 2.0
'PM.Lisa' 'hotel.pm' 50 1.0 2.0
'PM.Lisa' 'hotel.pm' 51 1.0 2.0
'PM.Lisa' 'hotel.pm' 52 1.0 2.0
'PM.Lisa' 'hotel.pm' 53 1.0 2.0
'PM.Lisa' 'hotel.pm' 56 1.0 2.0
'PM.Lisa' 'hotel.pm' 57 1.0 2.0
'PM.Lisa' 'hotel.pm' 58 1.0 2.0
'PM.Lisa' 'hotel.pm' 59 1.0 2.0
'PM.Lisa' 'hotel.pm' 60 1.0 2.0
'PM.Lisa' 'hotel.pm' 63 1.0 2.0
'PM.Lisa' 'hotel.pm' 64 1.0 2.0
'PM.Lisa' 'hotel.pm' 65 1.0 2.0
'PM.Lisa' 'hotel.pm' 66 1.0 2.0
'PM.Lisa' 'hotel.pm' 67 1.0 2.0
'PM.Lisa' 'hotel.pm' 70 1.0 2.0
'PM.Lisa' 'hotel.pm' 71 1.0 2.0
'PM.Lisa' 'hotel.pm' 72 1.0 2.0
'PM.Lisa' 'hotel.pm' 73 1.0 2.0
'PM.Lisa' 'hotel.pm' 74 1.0 2.0
'PM.Lisa' 'hotel.pm' 77 1.0 2.0
'PM.Lisa' 'hotel.pm' 78 1.0 2.0
'PM.Lisa' 'hotel.pm' 79 1.0 2.0
'PM.Lisa' 'hotel.pm' 80 1.0 2.0
'PM.Lisa' 'hotel.pm' 81 1.0 2.0
'PM.Lisa' 'hotel.pm' 84 1.0 2.0
'PM.Lisa' 'hotel.pm' 85 1.0 2.0
'PM.Lisa' 'hotel.pm' 86 1.0 2.0
'PM.Lisa' 'hotel.pm' 87 1.0 2.0
'PM.Lisa' 'hotel.pm' 88 1.0 2.0
'PM.Lisa' 'hotel.pm' 91 1.0 2.0
'PM.Lisa' 'hotel.pm' 92 1.0 2.0
'PM.Lisa' 'hotel.pm' 93 1.0 2.0
'PM.Lisa' 'hotel.pm' 94 1.0 2.0
'PM.Lisa' 'hotel.pm' 95 1.0 2.0
'PM.Lisa' 'hotel.pm' 98 1.0 2.0
'PM.Lisa' 'hotel.pm' 99 1.0 2.0
'PM.Lisa' 'hotel.pm' 100 1.0 2.0
'PM.Lisa' 'hotel.pm' 101 1.0 2.0
'PM.Lisa' 'hotel.pm' 102 1.0 2.0
'PM.Lisa' 'hotel.pm' 105 1.0 2.0
'PM.Lisa' 'hotel.pm' 106 1.0 2.0
'PM.Lisa' 'hotel.pm' 107 1.0 2.0
'PM.Lisa' 'hotel.pm' 108 1.0 2.0
'PM.Lisa' 'hotel.pm' 109 1.0 2.0
'PM.Lisa' 'hotel.pm' 112 1.0 2.0
'PM.Lisa' 'hotel.pm' 113 1.0 2.0
'PM.Lisa' 'hotel.pm' 114 1.0 2.0
'PM.Lisa' 'hotel.pm' 115 1.0 2.0
'PM.Lisa' 'hotel.pm' 116 1.0 2.0
'PM.Lisa' 'hotel.pm' 119 1.0 2.0
'PM.Lisa' 'hotel.pm' 120 1.0 2.0
'PM.Lisa' 'hotel.pm' 121 1.0 2.0
'PM.Lisa' 'hotel.pm' 123 1.0 2.0
'PM.Lisa' 'hotel.pm' 126 1.0 2.0
'PM.Lisa' 'hotel.pm' 127 1.0 2.0
'PM.Lisa' 'hotel.pm' 128 1.0 2.0
'PM.Lisa' 'hotel.pm' 129 1.0 2.0
'PM.Lisa' 'hotel.pm' 130 1.0 2.0
'PM.Lisa' 'hotel.pm' 133 1.0 2.0
'PM.Lisa' 'hotel.pm' 134 1.0 2.0
'PM.Lisa' 'hotel.pm' 135 1.0 2.0
'PM.Lisa' 'hotel.pm' 136 1.0 2.0
'PM.Lisa' 'hotel.pm' 137 1.0 2.0
'PM.Lisa' 'hotel.pm' 140 1.0 2.0
'PM.Lisa' 'hotel.pm' 141 1.0 2.0
'PM.Lisa' 'hotel.pm' 142 1.0 2.0
'PM.Lisa' 'hotel.pm' 143 1.0 2.0
'PM.Lisa' 'hotel.pm' 144 1.0 2.0
'PM.Lisa' 'hotel.pm' 147 1.0 2.0
'PM.Lisa' 'hotel.pm' 148 1.0 2.0
'PM.Lisa' 'hotel.pm' 149 1.0 2.0
'PM.Lisa' 'hotel.pm' 150 1.0 2.0
'PM.Lisa' 'hotel.pm' 151 1.0 2.0
'PM.Lisa' 'hotel.pm' 154 1.0 2.0
'PM.Lisa' 'hotel.pm' 155 1.0 2.0
'PM.Lisa' 'hotel.pm' 156 1.0 2.0
'PM.Lisa' 'hotel.pm' 157 1.0 2.0
'PM.Lisa' 'hotel.pm' 158 1.0 2.0
'PM.Lisa' 'hotel.pm' 161 1.0 2.0
'PM.Lisa' 'hotel.pm' 162 1.0 2.0
'PM.Lisa' 'hotel.pm' 163 1.0 2.0
'PM.Lisa' 'hotel.pm' 164 1.0 2.0
'PM.Lisa' 'hotel.pm' 165 1.0 2.0
'PM.Lisa' 'hotel.pm' 168 1.0 2.0
'PM.Lisa' 'hotel.pm' 169 1.0 2.0
'PM.Lisa' 'hotel.pm' 170 1.0 2.0
'PM.Lisa' 'hotel.pm' 171 1.0 2.0
'PM.Lisa' 'hotel.pm' 172 1.0 2.0
'PM.Lisa' 'hotel.pm' 175 1.0 2.0
'PM.Lisa' 'hotel.pm' 176 1.0 2.0
'PM.Lisa' 'hotel.pm' 177 1.0 2.0
'PM.Lisa' 'hotel.pm' 178 1.0 2.0
'PM.Lisa' 'hotel.pm' 179 1.0 2.0
'PM.Lisa' 'hotel.pm' 182 1.0 2.0
'PM.Lisa' 'hotel.pm' 183 1.0 2.0
'PM.Lisa' 'hotel.pm' 184 1.0 2.0
'PM.Lisa' 'hotel.pm' 185 1.0 2.0
'PM.Lisa' 'hotel.pm' 186 1.0 2.0
'PM.Lisa' 'hotel.pm' 189 1.0 2.0
'PM.Lisa' 'hotel.pm' 190 1.0 2.0
'PM.Lisa' 'hotel.pm' 191 1.0 2.0
'PM.Lisa' 'hotel.pm' 192 1.0 2.0
'PM.Lisa' 'hotel.pm' 193 1.0 2.0
'PM.Lisa' 'hotel.pm' 196 1.0 2.0
'PM.Lisa' 'hotel.pm' 197 1.0 2.0
'PM.Lisa' 'hotel.pm' 198 1.0 2.0
'PM.Lisa' 'hotel.pm' 199 1.0 2.0
'PM.Lisa' 'hotel.pm' 200 1.0 2.0
'PM.Lisa' 'hotel.pm' 203 1.0 2.0
'PM.Lisa' 'hotel.pm' 204 1.0 2.0
'PM.Lisa' 'hotel.pm' 205 1.0 2.0
'PM.Lisa' 'hotel.pm' 206 1.0 2.0
'PM.Lisa' 'hotel.pm' 207 1.0 2.0
'PM.Lisa' 'hotel.pm' 210 1.0 2.0
'PM.Lisa' 'hotel.pm' 211 1.0 2.0
'PM.Lisa' 'hotel.pm' 212 1.0 2.0
'PM.Lisa' 'hotel.pm' 213 1.0 2.0
'PM.Lisa' 'hotel.pm' 214 1.0 2.0
'PM.Lisa' 'hotel.pm' 217 1.0 2.0
'PM.Lisa' 'hotel.pm' 218 1.0 2.0
'PM.Lisa' 'hotel.pm' 219 1.0 2.0
'PM.Lisa' 'hotel.pm' 220 1.0 2.0
'PM.Lisa' 'hotel.pm' 221 1.0 2.0
'PM.Lisa' 'hotel.pm' 224 1.0 2.0
'PM.Lisa' 'hotel.pm' 225 1.0 2.0
'PM.Lisa' 'hotel.pm' 226 1.0 2.0
'PM.Lisa' 'hotel.pm' 227 1.0 2.0
'PM.Lisa' 'hotel.pm' 228 1.0 2.0
'PM.Lisa' 'hotel.pm' 231 1.0 2.0
'PM.Lisa' 'hotel.pm' 232 1.0 2.0
'PM.Lisa' 'hotel.pm' 233 1.0 2.0
'PM.Lisa' 'hotel.pm' 234 1.0 2.0
'PM.Lisa' 'hotel.pm' 235 1.0 2.0
'PM.Lisa' 'hotel.pm' 238 1.0 2.0
'PM.Lisa' 'hotel.pm' 239 1.0 2.0
'PM.Lisa' 'hotel.pm' 240 1.0 2.0
'PM.Lisa' 'hotel.pm' 241 1.0 2.0
'PM.Lisa' 'hotel.pm' 242 1.0 2.0
'PM.Lisa' 'hotel.pm' 245 1.0 2.0
'PM.Lisa' 'hotel.pf' 246 1.0 2.0
'PM.Lisa' 'hotel.pf' 247 1.0 2.0
'PM.Lisa' 'hotel.pf' 248 1.0 2.0
'PM.Lisa' 'hotel.pf' 249 1.0 2.0
'PM.Lisa' 'hotel.pf' 252 1.0 2.0
'PM.Lisa' 'hotel.pf' 253 1.0 2.0
'PM.Lisa' 'hotel.pf' 254 1.0 2.0
'PM.Lisa' 'hotel.pf' 255 1.0 2.0
'PM.Lisa' 'hotel.pf' 256 1.0 2.0
'PM.Lisa' 'hotel.pf' 259 1.0 2.0
'PM.Lisa' 'hotel.pf' 260 1.0 2.0
'PM.Lisa' 'hotel.pf' 261 1.0 2.0
'PM.Lisa' 'hotel.pf' 262 1.0 2.0
'PM.Lisa' 'hotel.pf' 263 1.0 2.0
'PM.Lisa' 'hotel.pf' 266 1.0 2.0
'PM.Lisa' 'hotel.pf' 267 1.0 2.0
'PM.Lisa' 'hotel.pf' 268 1.0 2.0
'PM.Lisa' 'hotel.pf' 269 1.0 2.0
'PM.Lisa' 'hotel.pf' 270 1.0 2.0
'PM.Lisa' 'hotel.pf' 273 1.0 2.0
'PM.Lisa' 'hotel.pf' 274 1.0 2.0
'PM.Lisa' 'hotel.pf' 275 1.0 2.0
'PM.Lisa' 'hotel.pf' 276 1.0 2.0
'PM.Lisa' 'hotel.pf' 277 1.0 2.0
'PM.Lisa' 'hotel.pf' 280 1.0 2.0
'PM.Lisa' 'hotel.pf' 281 1.0 2.0
'PM.Lisa' 'hotel.pf' 282 1.0 2.0
'PM.Lisa' 'hotel.pf' 283 1.0 2.0
'PM.Lisa' 'hotel.pf' 284 1.0 2.0
'PM.Lisa' 'hotel.pf' 287 1.0 2.0
'PM.Lisa' 'hotel.pf' 288 1.0 2.0
'PM.Lisa' 'hotel.pf' 289 1.0 2.0
'PM.Lisa' 'hotel.pf' 290 1.0 2.0
'PM.Lisa' 'hotel.pf' 291 1.0 2.0
'PM.Lisa' 'kilo.pe' 63 6.0 7.0
'PM.Lisa' 'kilo.pe' 64 6.0 7.0
'PM.Lisa' 'kilo.pe' 65 6.0 7.0
'PM.Lisa' 'kilo.pe' 66 6.0 7.0
'PM.Lisa' 'kilo.pe' 67 6.0 7.0
'PM.Lisa' 'kilo.pe' 70 6.0 7.0
'PM.Lisa' 'kilo.pe' 71 6.0 7.0
'PM.Lisa' 'kilo.pe' 72 6.0 7.0
'PM.Lisa' 'kilo.pe' 73 6.0 7.0
'PM.Lisa' 'kilo.pe' 74 6.0 7.0
'PM.Lisa' 'kilo.pe' 77 6.0 7.0
'PM.Lisa' 'kilo.pe' 78 6.0 7.0
'PM.Lisa' 'kilo.pe' 79 6.0 7.0
'PM.Lisa' 'kilo.pe' 80 6.0 7.0
'PM.Lisa' 'kilo.pe' 81 6.0 7.0
'PM.Lisa' 'kilo.pe' 84 6.0 7.0
'PM.Lisa' 'kilo.pm' 85 0.0 1.0
'PM.Lisa' 'kilo.pm' 86 0.0 1.0
'PM.Lisa' 'kilo.pm' 87 0.0 1.0
'PM.Lisa' 'kilo.pm' 88 0.0 1.0
'PM.Lisa' 'kilo.pm' 91 0.0 1.0
'PM.Lisa' 'kilo.pm' 92 0.0 1.0
'PM.Lisa' 'kilo.pm' 93 0.0 1.0
'PM.Lisa' 'kilo.pm' 94 0.0 1.0
'PM.Lisa' 'kilo.pm' 95 0.0 1.0
'PM.Lisa' 'kilo.pm' 98 0.0 1.0
'PM.Lisa' 'kilo.pm' 99 0.0 1.0
'PM.Lisa' 'kilo.pm' 100 0.0 1.0
'PM.Lisa' 'kilo.pm' 101 0.0 1.0
'PM.Lisa' 'kilo.pm' 102 0.0 1.0
'PM.Lisa' 'kilo.pm' 105 0.0 1.0
'PM.Lisa' 'kilo.pm' 106 0.0 1.0
'PM.Lisa' 'kilo.pm' 107 0.0 1.0
'PM.Lisa' 'kilo.pm' 108 0.0 1.0
'PM.Lisa' 'kilo.pm' 109 0.0 1.0
'PM.Lisa' 'kilo.pm' 112 0.0 1.0
'PM.Lisa' 'kilo.pm' 113 0.0 1.0
'PM.Lisa' 'kilo.pm' 114 0.0 1.0
'PM.Lisa' 'kilo.pm' 115 0.0 1.0
'PM.Lisa' 'kilo.pm' 116 0.0 1.0
'PM.Lisa' 'kilo.pm' 119 0.0 1.0
'PM.Lisa' 'kilo.pm' 120 0.0 1.0
'PM.Lisa' 'kilo.pm' 121 0.0 1.0
'PM.Lisa' 'kilo.pm' 123 0.0 1.0
'PM.Lisa' 'kilo.pm' 126 0.0 1.0
'PM.Lisa' 'kilo.pm' 127 0.0 1.0
'PM.Lisa' 'kilo.pm' 128 0.0 1.0
'PM.Lisa' 'kilo.pm' 129 0.0 1.0
'PM.Lisa' 'kilo.pm' 130 0.0 1.0
'PM.Lisa' 'kilo.pm' 133 0.0 1.0
'PM.Lisa' 'kilo.pm' 134 0.0 1.0
'PM.Lisa' 'kilo.pm' 135 0.0 1.0
'PM.Lisa' 'kilo.pm' 136 0.0 1.0
'PM.Lisa' 'kilo.pm' 137 0.0 1.0
'PM.Lisa' 'kilo.pm' 140 0.0 1.0
'PM.Lisa' 'kilo.pm' 141 0.0 1.0
'PM.Lisa' 'kilo.pm' 142 0.0 1.0
'PM.Lisa' 'kilo.pm' 143 0.0 1.0
'PM.Lisa' 'kilo.pm' 144 0.0 1.0
'PM.Lisa' 'kilo.pm' 147 0.0 1.0
'PM.Lisa' 'kilo.pm' 148 0.0 1.0
'PM.Lisa' 'kilo.pm' 149 0.0 1.0
'PM.Lisa' 'kilo.pm' 150 0.0 1.0
'PM.Lisa' 'kilo.pm' 151 0.0 1.0
'PM.Lisa' 'kilo.pm' 154 0.0 1.0
'PM.Lisa' 'kilo.pm' 155 0.0 1.0
'PM.Lisa' 'kilo.pm' 156 0.0 1.0
'PM.Lisa' 'kilo.pm' 157 0.0 1.0
'PM.Lisa' 'kilo.pm' 158 0.0 1.0
'PM.Lisa' 'kilo.pm' 161 0.0 1.0
'PM.Lisa' 'kilo.pm' 162 0.0 1.0
'PM.Lisa' 'kilo.pm' 163 0.0 1.0
'PM.Lisa' 'kilo.pm' 164 0.0 1.0
'PM.Lisa' 'kilo.pm' 165 0.0 1.0
'PM.Lisa' 'kilo.pm' 168 0.0 1.0
'PM.Lisa' 'kilo.pm' 169 0.0 1.0
'PM.Lisa' 'kilo.pm' 170 0.0 1.0
'PM.Lisa' 'kilo.pm' 171 0.0 1.0
'PM.Lisa' 'kilo.pm' 172 0.0 1.0
'PM.Lisa' 'kilo.pm' 175 0.0 1.0
'PM.Lisa' 'kilo.pm' 176 0.0 1.0
'PM.Lisa' 'kilo.pm' 177 0.0 1.0
'PM.Lisa' 'kilo.pm' 178 0.0 1.0
'PM.Lisa' 'kilo.pm' 179 0.0 1.0
'PM.Lisa' 'kilo.pm' 182 0.0 1.0
'PM.Lisa' 'kilo.pm' 183 0.0 1.0
'PM.Lisa' 'kilo.pm' 184 0.0 1.0
'PM.Lisa' 'kilo.pm' 185 0.0 1.0
'PM.Lisa' 'kilo.pm' 186 0.0 1.0
'PM.Lisa' 'kilo.pm' 189 0.0 1.0
'PM.Lisa' 'kilo.pm' 190 0.0 1.0
'PM.Lisa' 'kilo.pm' 191 0.0 1.0
'PM.Lisa' 'kilo.pm' 192 0.0 1.0
'PM.Lisa' 'kilo.pm' 193 0.0 1.0
'PM.Lisa' 'kilo.pm' 196 0.0 1.0
'PM.Lisa' 'kilo.pm' 197 0.0 1.0
'PM.Lisa' 'kilo.pm' 198 0.0 1.0
'PM.Lisa' 'kilo.pm' 199 0.0 1.0
'PM.Lisa' 'kilo.pm' 200 0.0 1.0
'PM.Lisa' 'kilo.pm' 203 0.0 1.0
'PM.Lisa' 'kilo.pm' 204 0.0 1.0
'PM.Lisa' 'kilo.pm' 205 0.0 1.0
'PM.Lisa' 'kilo.pm' 206 0.0 1.0
'PM.Lisa' 'kilo.pm' 207 0.0 1.0
'PM.Lisa' 'kilo.pm' 210 0.0 1.0
'PM.Lisa' 'kilo.pm' 211 0.0 1.0
'PM.Lisa' 'kilo.pm' 212 0.0 1.0
'PM.Lisa' 'kilo.pm' 213 0.0 1.0
'PM.Lisa' 'kilo.pm' 214 0.0 1.0
'PM.Lisa' 'kilo.pf' 217 2.0 3.0
'PM.Lisa' 'kilo.pf' 218 2.0 3.0
'PM.Lisa' 'kilo.pf' 219 2.0 3.0
'PM.Lisa' 'kilo.pf' 220 2.0 3.0
'PM.Lisa' 'kilo.pf' 221 2.0 3.0
'PM.Lisa' 'kilo.pf' 224 2.0 3.0
'PM.Lisa' 'kilo.pf' 225 2.0 3.0
'PM.Lisa' 'kilo.pf' 226 2.0 3.0
'PM.Lisa' 'kilo.pf' 227 2.0 3.0
'PM.Lisa' 'kilo.pf' 228 2.0 3.0
'PM.Lisa' 'kilo.pf' 231 2.0 3.0
'PM.Lisa' 'kilo.pf' 232 2.0 3.0
'PM.Lisa' 'kilo.pf' 233 2.0 3.0
'PM.Lisa' 'kilo.pf' 234 2.0 3.0
'PM.Lisa' 'kilo.pf' 235 2.0 3.0
'PM.Lisa' 'kilo.pf' 238 2.0 3.0
'PM.Lisa' 'kilo.pf' 239 2.0 3.0
'PM.Lisa' 'kilo.pf' 240 2.0 3.0
'PM.Lisa' 'kilo.pf' 241 2.0 3.0
'PM.Lisa' 'kilo.pf' 242 2.0 3.0
'PM.Lisa' 'kilo.pf' 245 2.0 3.0
'PM.Lisa' 'kilo.pf' 246 2.0 3.0
'PM.Lisa' 'kilo.pf' 247 2.0 3.0
'PM.Lisa' 'kilo.pf' 248 2.0 3.0
'PM.Lisa' 'kilo.pf' 249 2.0 3.0
'PM.Lisa' 'kilo.pf' 252 2.0 3.0
'PM.Lisa' 'kilo.pf' 253 2.0 3.0
'PM.Lisa' 'kilo.pf' 254 2.0 3.0
'PM.Lisa' 'kilo.pf' 255 2.0 3.0
'PM.Lisa' 'kilo.pf' 256 2.0 3.0
'PM.Lisa' 'kilo.pf' 259 2.0 3.0
'PM.Lisa' 'kilo.pf' 260 2.0 3.0
'PM.Lisa' 'lima.pe' 81 4.0 5.0
'PM.Lisa' 'lima.pe' 84 4.0 5.0
'PM.Lisa' 'lima.pe' 85 4.0 5.0
'PM.Lisa' 'lima.pe' 86 4.0 5.0
'PM.Lisa' 'lima.pe' 87 4.0 5.0
'PM.Lisa' 'lima.pe' 88 4.0 5.0
'PM.Lisa' 'lima.pe' 91 4.0 5.0
'PM.Lisa' 'lima.pe' 92 4.0 5.0
'PM.Lisa' 'lima.pe' 93 4.0 5.0
'PM.Lisa' 'lima.pe' 94 4.0 5.0
'PM.Lisa' 'lima.pe' 95 4.0 5.0
'PM.Lisa' 'lima.pe' 98 4.0 5.0
'PM.Lisa' 'lima.pe' 99 4.0 5.0
'PM.Lisa' 'lima.pe' 100 4.0 5.0
'PM.Lisa' 'lima.pe' 101 4.0 5.0
'PM.Lisa' 'lima.pe' 102 4.0 5.0
'PM.Lisa' 'lima.pe' 105 4.0 5.0
'PM.Lisa' 'lima.pe' 106 4.0 5.0
'PM.Lisa' 'lima.pe' 107 4.0 5.0
'PM.Lisa' 'lima.pe' 108 4.0 5.0
'PM.Lisa' 'lima.pe' 109 4.0 5.0
'PM.Lisa' 'lima.pm' 112 2.0 3.0
'PM.Lisa' 'lima.pm' 113 2.0 3.0
'PM.Lisa' 'lima.pm' 114 2.0 3.0
'PM.Lisa' 'lima.pm' 115 2.0 3.0
'PM.Lisa' 'lima.pm' 116 2.0 3.0
'PM.Lisa' 'lima.pm' 119 2.0 3.0
'PM.Lisa' 'lima.pm' 120 2.0 3.0
'PM.Lisa' 'lima.pm' 121 2.0 3.0
'PM.Lisa' 'lima.pm' 123 2.0 3.0
'PM.Lisa' 'lima.pm' 126 2.0 3.0
'PM.Lisa' 'lima.pm' 127 2.0 3.0
'PM.Lisa' 'lima.pm' 128 2.0 3.0
'PM.Lisa' 'lima.pm' 129 2.0 3.0
'PM.Lisa' 'lima.pm' 130 2.0 3.0
'PM.Lisa' 'lima.pm' 133 2.0 3.0
'PM.Lisa' 'lima.pm' 134 2.0 3.0
'PM.Lisa' 'lima.pm' 135 2.0 3.0
'PM.Lisa' 'lima.pm' 136 2.0 3.0
'PM.Lisa' 'lima.pm' 137 2.0 3.0
'PM.Lisa' 'lima.pm' 140 2.0 3.0
'PM.Lisa' 'lima.pm' 141 2.0 3.0
'PM.Lisa' 'lima.pm' 142 2.0 3.0
'PM.Lisa' 'lima.pm' 143 2.0 3.0
'PM.Lisa' 'lima.pm' 144 2.0 3.0
'PM.Lisa' 'lima.pm' 147 2.0 3.0
'PM.Lisa' 'lima.pm' 148 2.0 3.0
'PM.Lisa' 'lima.pm' 149 2.0 3.0
'PM.Lisa' 'lima.pm' 150 2.0 3.0
'PM.Lisa' 'lima.pm' 151 2.0 3.0
'PM.Lisa' 'lima.pm' 154 2.0 3.0
'PM.Lisa' 'lima.pm' 155 2.0 3.0
'PM.Lisa' 'lima.pm' 156 2.0 3.0
'PM.Lisa' 'lima.pm' 157 2.0 3.0
'PM.Lisa' 'lima.pm' 158 2.0 3.0
'PM.Lisa' 'lima.pm' 161 2.0 3.0
'PM.Lisa' 'lima.pm' 162 2.0 3.0
'PM.Lisa' 'lima.pm' 163 2.0 3.0
'PM.Lisa' 'lima.pm' 164 2.0 3.0
'PM.Lisa' 'lima.pm' 165 2.0 3.0
'PM.Lisa' 'lima.pm' 168 2.0 3.0
'PM.Lisa' 'lima.pm' 169 2.0 3.0
'PM.Lisa' 'lima.pm' 170 2.0 3.0
'PM.Lisa' 'lima.pm' 171 2.0 3.0
'PM.Lisa' 'lima.pm' 172 2.0 3.0
'PM.Lisa' 'lima.pm' 175 2.0 3.0
'PM.Lisa' 'lima.pm' 176 2.0 3.0
'PM.Lisa' 'lima.pm' 177 2.0 3.0
'PM.Lisa' 'lima.pm' 178 2.0 3.0
'PM.Lisa' 'lima.pm' 179 2.0 3.0
'PM.Lisa' 'lima.pm' 182 2.0 3.0
'PM.Lisa' 'lima.pm' 183 2.0 3.0
'PM.Lisa' 'lima.pm' 184 2.0 3.0
'PM.Lisa' 'lima.pm' 185 2.0 3.0
'PM.Lisa' 'lima.pm' 186 2.0 3.0
'PM.Lisa' 'lima.pm' 189 2.0 3.0
'PM.Lisa' 'lima.pm' 190 2.0 3.0
'PM.Lisa' 'lima.pm' 191 2.0 3.0
'PM.Lisa' 'lima.pm' 192 2.0 3.0
'PM.Lisa' 'lima.pm' 193 2.0 3.0
'PM.Lisa' 'lima.pm' 196 2.0 3.0
'PM.Lisa' 'lima.pm' 197 2.0 3.0
'PM.Lisa' 'lima.pm' 198 2.0 3.0
'PM.Lisa' 'lima.pm' 199 2.0 3.0
'PM.Lisa' 'lima.pm' 200 2.0 3.0
'PM.Lisa' 'lima.pm' 203 2.0 3.0
'PM.Lisa' 'lima.pm' 204 2.0 3.0
'PM.Lisa' 'lima.pm' 205 2.0 3.0
'PM.Lisa' 'lima.pm' 206 2.0 3.0
'PM.Lisa' 'lima.pm' 207 2.0 3.0
'PM.Lisa' 'lima.pm' 210 2.0 3.0
'PM.Lisa' 'lima.pm' 211 2.0 3.0
'PM.Lisa' 'lima.pm' 212 2.0 3.0
'PM.Lisa' 'lima.pm' 213 2.0 3.0
'PM.Lisa' 'lima.pm' 214 2.0 3.0
'PM.Lisa' 'lima.pm' 217 2.0 3.0
'PM.Lisa' 'lima.pm' 218 2.0 3.0
'PM.Lisa' 'lima.pm' 219 2.0 3.0
'PM.Lisa' 'lima.pm' 220 2.0 3.0
'PM.Lisa' 'lima.pm' 221 2.0 3.0
'PM.Lisa' 'lima.pm' 224 2.0 3.0
'PM.Lisa' 'lima.pm' 225 2.0 3.0
'PM.Lisa' 'lima.pm' 226 2.0 3.0
'PM.Lisa' 'lima.pm' 227 2.0 3.0
'PM.Lisa' 'lima.pm' 228 2.0 3.0
'PM.Lisa' 'lima.pm' 231 2.0 3.0
'PM.Lisa' 'lima.pm' 232 2.0 3.0
'PM.Lisa' 'lima.pm' 233 2.0 3.0
'PM.Lisa' 'lima.pm' 234 2.0 3.0
'PM.Lisa' 'lima.pm' 235 2.0 3.0
'PM.Lisa' 'lima.pm' 238 2.0 3.0
'PM.Lisa' 'lima.pm' 239 2.0 3.0
'PM.Lisa' 'lima.pm' 240 2.0 3.0
'PM.Lisa' 'lima.pm' 241 2.0 3.0
'PM.Lisa' 'lima.pm' 242 2.0 3.0
'PM.Lisa' 'lima.pm' 245 2.0 3.0
'PM.Lisa' 'lima.pm' 246 2.0 3.0
'PM.Lisa' 'lima.pm' 247 2.0 3.0
'PM.Lisa' 'lima.pm' 248 2.0 3.0
'PM.Lisa' 'lima.pm' 249 2.0 3.0
'PM.Lisa' 'lima.pm' 252 2.0 3.0
'PM.Lisa' 'lima.pm' 253 2.0 3.0
'PM.Lisa' 'lima.pm' 254 2.0 3.0
'PM.Lisa' 'lima.pm' 255 2.0 3.0
'PM.Lisa' 'lima.pm' 256 2.0 3.0
'PM.Lisa' 'lima.pm' 259 2.0 3.0
'PM.Lisa' 'lima.pm' 260 2.0 3.0
'PM.Lisa' 'lima.pm' 261 2.0 3.0
'PM.Lisa' 'lima.pm' 262 2.0 3.0
'PM.Lisa' 'lima.pm' 263 2.0 3.0
'PM.Lisa' 'lima.pm' 266 2.0 3.0
'PM.Lisa' 'lima.pm' 267 2.0 3.0
'PM.Lisa' 'lima.pm' 268 2.0 3.0
'PM.Lisa' 'lima.pm' 269 2.0 3.0
'PM.Lisa' 'lima.pm' 270 2.0 3.0
'PM.Lisa' 'lima.pm' 273 2.0 3.0
'PM.Lisa' 'lima.pm' 274 2.0 3.0
'PM.Lisa' 'lima.pm' 275 2.0 3.0
'PM.Lisa' 'lima.pm' 276 2.0 3.0
'PM.Lisa' 'lima.pm' 277 2.0 3.0
'PM.Lisa' 'lima.pm' 280 2.0 3.0
'PM.Lisa' 'lima.pm' 281 2.0 3.0
'PM.Lisa' 'lima.pm' 282 2.0 3.0
'PM.Lisa' 'lima.pm' 283 2.0 3.0
'PM.Lisa' 'lima.pm' 284 2.0 3.0
'PM.Lisa' 'lima.pm' 287 2.0 3.0
'PM.Lisa' 'lima.pm' 288 2.0 3.0
'PM.Lisa' 'lima.pm' 289 2.0 3.0
'PM.Lisa' 'lima.pm' 290 2.0 3.0
'PM.Lisa' 'lima.pm' 291 2.0 3.0
'PM.Lisa' 'lima.pm' 294 2.0 3.0
'PM.Lisa' 'lima.pm' 295 2.0 3.0
'PM.Lisa' 'lima.pm' 296 2.0 3.0
'PM.Lisa' 'lima.pm' 297 2.0 3.0
'PM.Lisa' 'lima.pm' 298 2.0 3.0
'PM.Lisa' 'lima.pm' 301 2.0 3.0
'PM.Lisa' 'lima.pm' 302 2.0 3.0
'PM.Lisa' 'lima.pm' 303 2.0 3.0
'PM.Lisa' 'lima.pm' 304 2.0 3.0
'PM.Lisa' 'lima.pm' 305 2.0 3.0
'PM.Lisa' 'lima.pf' 308 4.0 5.0
'PM.Lisa' 'lima.pf' 309 4.0 5.0
'PM.Lisa' 'lima.pf' 310 4.0 5.0
'PM.Lisa' 'lima.pf' 311 4.0 5.0
'PM.Lisa' 'lima.pf' 312 4.0 5.0
'PM.Lisa' 'lima.pf' 315 4.0 5.0
'PM.Lisa' 'lima.pf' 316 4.0 5.0
'PM.Lisa' 'lima.pf' 317 4.0 5.0
'PM.Lisa' 'lima.pf' 318 4.0 5.0
'PM.Lisa' 'lima.pf' 319 4.0 5.0
'PM.Lisa' 'lima.pf' 322 4.0 5.0
'PM.Lisa' 'lima.pf' 323 4.0 5.0
'PM.Lisa' 'lima.pf' 324 4.0 5.0
'PM.Lisa' 'lima.pf' 325 4.0 5.0
'PM.Lisa' 'lima.pf' 326 4.0 5.0
'PM.Lisa' 'lima.pf' 329 4.0 5.0
'PM.Lisa' 'lima.pf' 330 4.0 5.0
'PM.Lisa' 'lima.pf' 331 4.0 5.0
'PM.Lisa' 'lima.pf' 332 4.0 5.0
'PM.Lisa' 'lima.pf' 333 4.0 5.0
'PM.Lisa' 'zulu2.pe' 168 9.0 10.0
'PM.Lisa' 'zulu2.pe' 169 9.0 10.0
'PM.Lisa' 'zulu2.pe' 170 9.0 10.0
'PM.Lisa' 'zulu2.pe' 171 9.0 10.0
'PM.Lisa' 'zulu2.pe' 172 9.0 10.0
'PM.Lisa' 'zulu2.pe' 175 9.0 10.0
'PM.Lisa' 'zulu2.pe' 176 9.0 10.0
'PM.Lisa' 'zulu2.pe' 177 9.0 10.0
'PM.Lisa' 'zulu2.pe' 178 9.0 10.0
'PM.Lisa' 'zulu2.pe' 179 9.0 10.0
'PM.Lisa' 'zulu2.pe' 182 9.0 10.0
'PM.Lisa' 'zulu2.pe' 183 9.0 10.0
'PM.Lisa' 'zulu2.pe' 184 9.0 10.0
'PM.Lisa' 'zulu2.pe' 185 9.0 10.0
'PM.Lisa' 'zulu2.pe' 186 9.0 10.0
'PM.Lisa' 'zulu2.pe' 189 9.0 10.0
'PM.Lisa' 'zulu2.pe' 190 9.0 10.0
'PM.Lisa' 'zulu2.pe' 191 9.0 10.0
'PM.Lisa' 'zulu2.pe' 192 9.0 10.0
'PM.Lisa' 'zulu2.pe' 193 9.0 10.0
'PM.Lisa' 'zulu2.pe' 196 9.0 10.0
'PM.Lisa' 'zulu2.pe' 197 9.0 10.0
'PM.Lisa' 'zulu2.pm' 198 3.0 4.0
'PM.Lisa' 'zulu2.pm' 199 3.0 4.0
'PM.Lisa' 'zulu2.pm' 200 3.0 4.0
'PM.Lisa' 'zulu2.pm' 203 3.0 4.0
'PM.Lisa' 'zulu2.pm' 204 3.0 4.0
'PM.Lisa' 'zulu2.pm' 205 3.0 4.0
'PM.Lisa' 'zulu2.pm' 206 3.0 4.0
'PM.Lisa' 'zulu2.pm' 207 3.0 4.0
'PM.Lisa' 'zulu2.pm' 210 3.0 4.0
'PM.Lisa' 'zulu2.pm' 211 3.0 4.0
'PM.Lisa' 'zulu2.pm' 212 3.0 4.0
'PM.Lisa' 'zulu2.pm' 213 3.0 4.0
'PM.Lisa' 'zulu2.pm' 214 3.0 4.0
'PM.Lisa' 'zulu2.pm' 217 3.0 4.0
'PM.Lisa' 'zulu2.pm' 218 3.0 4.0
'PM.Lisa' 'zulu2.pm' 219 3.0 4.0
'PM.Lisa' 'zulu2.pm' 220 3.0 4.0
'PM.Lisa' 'zulu2.pm' 221 3.0 4.0
'PM.Lisa' 'zulu2.pm' 224 3.0 4.0
'PM.Lisa' 'zulu2.pm' 225 3.0 4.0
'PM.Lisa' 'zulu2.pm' 226 3.0 4.0
'PM.Lisa' 'zulu2.pm' 227 3.0 4.0
'PM.Lisa' 'zulu2.pm' 228 3.0 4.0
'PM.Lisa' 'zulu2.pm' 231 3.0 4.0
'PM.Lisa' 'zulu2.pm' 232 3.0 4.0
'PM.Lisa' 'zulu2.pm' 233 3.0 4.0
'PM.Lisa' 'zulu2.pm' 234 3.0 4.0
'PM.Lisa' 'zulu2.pm' 235 3.0 4.0
'PM.Lisa' 'zulu2.pm' 238 3.0 4.0
'PM.Lisa' 'zulu2.pm' 239 3.0 4.0
'PM.Lisa' 'zulu2.pm' 240 3.0 4.0
'PM.Lisa' 'zulu2.pm' 241 3.0 4.0
'PM.Lisa' 'zulu2.pm' 242 3.0 4.0
'PM.Lisa' 'zulu2.pm' 245 3.0 4.0
'PM.Lisa' 'zulu2.pm' 246 3.0 4.0
'PM.Lisa' 'zulu2.pm' 247 3.0 4.0
'PM.Lisa' 'zulu2.pm' 248 3.0 4.0
'PM.Lisa' 'zulu2.pm' 249 3.0 4.0
'PM.Lisa' 'zulu2.pm' 252 3.0 4.0
'PM.Lisa' 'zulu2.pm' 253 3.0 4.0
'PM.Lisa' 'zulu2.pm' 254 3.0 4.0
'PM.Lisa' 'zulu2.pm' 255 3.0 4.0
'PM.Lisa' 'zulu2.pm' 256 3.0 4.0
'PM.Lisa' 'zulu2.pm' 259 3.0 4.0
'PM.Lisa' 'zulu2.pm' 260 3.0 4.0
'PM.Lisa' 'zulu2.pm' 261 3.0 4.0
'PM.Lisa' 'zulu2.pm' 262 3.0 4.0
'PM.Lisa' 'zulu2.pm' 263 3.0 4.0
'PM.Lisa' 'zulu2.pm' 266 3.0 4.0
'PM.Lisa' 'zulu2.pm' 267 3.0 4.0
'PM.Lisa' 'zulu2.pm' 268 3.0 4.0
'PM.Lisa' 'zulu2.pm' 269 3.0 4.0
'PM.Lisa' 'zulu2.pm' 270 3.0 4.0
'PM.Lisa' 'zulu2.pm' 273 3.0 4.0
'PM.Lisa' 'zulu2.pm' 274 3.0 4.0
'PM.Lisa' 'zulu2.pm' 275 3.0 4.0
'PM.Lisa' 'zulu2.pm' 276 3.0 4.0
'PM.Lisa' 'zulu2.pm' 277 3.0 4.0
'PM.Lisa' 'zulu2.pm' 280 3.0 4.0
'PM.Lisa' 'zulu2.pm' 281 3.0 4.0
'PM.Lisa' 'zulu2.pm' 282 3.0 4.0
'PM.Lisa' 'zulu2.pm' 283 3.0 4.0
'PM.Lisa' 'zulu2.pm' 284 3.0 4.0
'PM.Lisa' 'zulu2.pm' 287 3.0 4.0
'PM.Lisa' 'zulu2.pm' 288 3.0 4.0
'PM.Lisa' 'zulu2.pm' 289 3.0 4.0
'PM.Lisa' 'zulu2.pm' 290 3.0 4.0
'PM.Lisa' 'zulu2.pm' 291 3.0 4.0
'PM.Lisa' 'zulu2.pm' 294 3.0 4.0
'PM.Lisa' 'zulu2.pm' 295 3.0 4.0
'PM.Lisa' 'zulu2.pm' 296 3.0 4.0
'PM.Lisa' 'zulu2.pm' 297 3.0 4.0
'PM.Lisa' 'zulu2.pm' 298 3.0 4.0
'PM.Lisa' 'zulu2.pm' 301 3.0 4.0
'PM.Lisa' 'zulu2.pm' 302 3.0 4.0
'PM.Lisa' 'zulu2.pm' 303 3.0 4.0
'PM.Lisa' 'zulu2.pm' 304 3.0 4.0
'PM.Lisa' 'zulu2.pm' 305 3.0 4.0
'PM.Lisa' 'zulu2.pm' 308 3.0 4.0
'PM.Lisa' 'zulu2.pm' 309 3.0 4.0
'PM.Lisa' 'zulu2.pm' 310 3.0 4.0
'PM.Lisa' 'zulu2.pm' 311 3.0 4.0
'PM.Lisa' 'zulu2.pm' 312 3.0 4.0
'PM.Lisa' 'zulu2.pm' 315 3.0 4.0
'PM.Lisa' 'zulu2.pm' 316 3.0 4.0
'PM.Lisa' 'zulu2.pm' 317 3.0 4.0
'PM.Lisa' 'zulu2.pm' 318 3.0 4.0
'PM.Lisa' 'zulu2.pm' 319 3.0 4.0
'PM.Lisa' 'zulu2.pm' 322 3.0 4.0
'PM.Lisa' 'zulu2.pm' 323 3.0 4.0
'PM.Lisa' 'zulu2.pm' 324 3.0 4.0
'PM.Lisa' 'zulu2.pm' 325 3.0 4.0
'PM.Lisa' 'zulu2.pm' 326 3.0 4.0
'PM.Lisa' 'zulu2.pf' 329 13.0 14.0
'PM.Lisa' 'zulu2.pf' 330 13.0 14.0
'PM.Lisa' 'zulu2.pf' 331 13.0 14.0
'PM.Lisa' 'zulu2.pf' 332 13.0 14.0
'PM.Lisa' 'zulu2.pf' 333 13.0 14.0
'PM.Lisa' 'zulu2.pf' 336 13.0 14.0
;

param:
EBID: EBN EBS EBE EBL EBU :=

;

param:
PNAME: PERS PERE :=
'Jan.25' 1 16
'Feb.25' 17 45
'Mar.25' 46 76
'Apr.25' 77 105
'May.25' 106 139
'Jun.25' 140 170
'Jul.25' 171 199
'Aug.25' 200 230
'Sep.25' 231 259
'Oct.25' 260 289
'Nov.25' 290 317
'Dec.25' 318 346
;

param:
EXPPER: PBL PBU :=
'PM.Lisa' 'Jan.25' 0 720
'PM.Lisa' 'Feb.25' 0 720
'PM.Lisa' 'Mar.25' 0 720
'PM.Lisa' 'Apr.25' 0 720
'PM.Lisa' 'May.25' 0 720
'PM.Lisa' 'Jun.25' 0 720
'PM.Lisa' 'Jul.25' 0 720
'PM.Lisa' 'Aug.25' 0 720
'PM.Lisa' 'Sep.25' 0 720
'PM.Lisa' 'Oct.25' 0 720
'PM.Lisa' 'Nov.25' 0 720
'PM.Lisa' 'Dec.25' 0 720
;

